words_hard_train/7939.qaiger
aag 15 8 0 1 7
2
4
8
10
14
20
22
28
31
6 3 5
12 9 11
16 13 15
18 6 16
24 21 23
26 18 24
30 27 29
i0 2 y2[3]
i1 2 y2[6]
i2 2 y1[0]
i3 1 x2[0]
i4 2 y2[4]
i5 2 y2[2]
i6 2 y2[5]
i7 2 y2[7]
o0 bv[0]
c
simplified
  >
    and
      1
      or
        1 x2
        2 y1
    >> 2
      2 y2
