words_hard_train/7939.qaiger.qdimacs
p cnf 15 22
a 5 0
e 1 2 3 4 6 7 8 9 10 11 12 13 14 15 0
1 2 3 0
-1 -3 0
-2 -3 0
4 5 6 0
-4 -6 0
-5 -6 0
6 7 8 0
-6 -8 0
-7 -8 0
-3 -8 9 0
3 -9 0
8 -9 0
10 11 12 0
-10 -12 0
-11 -12 0
-9 -12 13 0
9 -13 0
12 -13 0
13 14 15 0
-13 -15 0
-14 -15 0
-15 0
